words_hard_train/1670.qaiger
aag 153 19 0 1 134
2
4
8
16
26
34
46
80
98
116
132
140
166
174
188
204
220
236
252
306
6 2 4
10 4 8
12 5 9
14 11 13
18 14 16
20 7 19
22 15 17
24 21 23
28 12 26
30 13 27
32 29 31
36 32 35
38 33 34
40 37 39
42 24 40
44 43 39
48 31 47
50 30 46
52 49 51
54 44 53
56 45 52
58 55 57
60 20 23
62 3 5
64 19 23
66 63 65
68 61 67
70 25 41
72 71 43
74 68 73
76 59 74
78 57 51
82 31 81
84 30 80
86 83 85
88 78 87
90 79 86
92 89 91
94 76 93
96 91 85
100 31 99
102 30 98
104 101 103
106 96 105
108 97 104
110 107 109
112 94 111
114 109 103
118 31 117
120 30 116
122 119 121
124 114 123
126 115 122
128 125 127
130 112 129
134 131 132
136 130 133
138 135 137
142 31 140
144 30 141
146 143 145
148 127 121
150 147 149
152 146 148
154 151 153
156 139 154
158 138 155
160 157 159
162 62 64
164 163 67
168 164 167
170 165 166
172 169 171
176 172 174
178 63 7
180 176 178
182 181 171
184 69 72
186 185 75
190 187 189
192 186 188
194 191 193
196 183 194
198 197 193
200 58 75
202 201 77
206 203 205
208 202 204
210 207 209
212 199 210
214 213 209
216 77 92
218 217 95
222 219 221
224 218 220
226 223 225
228 215 226
230 229 225
232 95 110
234 233 113
238 235 237
240 234 236
242 239 241
244 231 242
246 245 241
248 113 128
250 249 131
254 251 253
256 250 252
258 255 257
260 247 258
262 261 257
264 160 263
266 161 262
268 265 267
270 198 211
272 271 213
274 182 195
276 275 197
278 273 277
280 173 175
282 280 179
284 283 181
286 214 227
288 287 229
290 285 289
292 230 243
294 293 245
296 290 295
298 246 259
300 299 261
302 296 301
304 278 302
306 268 305
i0 2 y1[0]
i1 1 x1[5]
i2 1 x1[6]
i3 2 y1[1]
i4 1 x1[7]
i5 2 y1[2]
i6 2 y1[3]
i7 2 y1[4]
i8 2 y1[5]
i9 2 y1[6]
i10 1 x2[7]
i11 2 y1[7]
i12 1 x2[1]
i13 1 x2[0]
i14 1 x2[2]
i15 1 x2[3]
i16 1 x2[4]
i17 1 x2[5]
i18 1 x2[6]
o0 bv[0]
c
simplified
  >=
    subtract
      1 x2
      subtract
        2 y1
        >> 5
          1 x1
    1
