words_hard_train/1670.qaiger.qdimacs
p cnf 153 403
a 2 66 4 102 13 110 83 118 87 126 94 0
e 1 3 5 6 7 8 9 10 11 12 14 15 16 17 18 19 20 21 22 23 24 25 26 27 28 29 30 31 32 33 34 35 36 37 38 39 40 41 42 43 44 45 46 47 48 49 50 51 52 53 54 55 56 57 58 59 60 61 62 63 64 65 67 68 69 70 71 72 73 74 75 76 77 78 79 80 81 82 84 85 86 88 89 90 91 92 93 95 96 97 98 99 100 101 103 104 105 106 107 108 109 111 112 113 114 115 116 117 119 120 121 122 123 124 125 127 128 129 130 131 132 133 134 135 136 137 138 139 140 141 142 143 144 145 146 147 148 149 150 151 152 153 0
-1 -2 3 0
1 -3 0
2 -3 0
-2 -4 5 0
2 -5 0
4 -5 0
2 4 6 0
-2 -6 0
-4 -6 0
5 6 7 0
-5 -7 0
-6 -7 0
-7 -8 9 0
7 -9 0
8 -9 0
3 9 10 0
-3 -10 0
-9 -10 0
7 8 11 0
-7 -11 0
-8 -11 0
10 11 12 0
-10 -12 0
-11 -12 0
-6 -13 14 0
6 -14 0
13 -14 0
6 13 15 0
-6 -15 0
-13 -15 0
14 15 16 0
-14 -16 0
-15 -16 0
-16 17 18 0
16 -18 0
-17 -18 0
16 -17 19 0
-16 -19 0
17 -19 0
18 19 20 0
-18 -20 0
-19 -20 0
-12 -20 21 0
12 -21 0
20 -21 0
21 19 22 0
-21 -22 0
-19 -22 0
15 23 24 0
-15 -24 0
-23 -24 0
-15 -23 25 0
15 -25 0
23 -25 0
24 25 26 0
-24 -26 0
-25 -26 0
-22 26 27 0
22 -27 0
-26 -27 0
22 -26 28 0
-22 -28 0
26 -28 0
27 28 29 0
-27 -29 0
-28 -29 0
-10 11 30 0
10 -30 0
-11 -30 0
1 2 31 0
-1 -31 0
-2 -31 0
9 11 32 0
-9 -32 0
-11 -32 0
31 32 33 0
-31 -33 0
-32 -33 0
30 33 34 0
-30 -34 0
-33 -34 0
12 20 35 0
-12 -35 0
-20 -35 0
35 21 36 0
-35 -36 0
-21 -36 0
-34 36 37 0
34 -37 0
-36 -37 0
29 -37 38 0
-29 -38 0
37 -38 0
28 25 39 0
-28 -39 0
-25 -39 0
15 40 41 0
-15 -41 0
-40 -41 0
-15 -40 42 0
15 -42 0
40 -42 0
41 42 43 0
-41 -43 0
-42 -43 0
-39 43 44 0
39 -44 0
-43 -44 0
39 -43 45 0
-39 -45 0
43 -45 0
44 45 46 0
-44 -46 0
-45 -46 0
-38 46 47 0
38 -47 0
-46 -47 0
45 42 48 0
-45 -48 0
-42 -48 0
15 49 50 0
-15 -50 0
-49 -50 0
-15 -49 51 0
15 -51 0
49 -51 0
50 51 52 0
-50 -52 0
-51 -52 0
-48 52 53 0
48 -53 0
-52 -53 0
48 -52 54 0
-48 -54 0
52 -54 0
53 54 55 0
-53 -55 0
-54 -55 0
-47 55 56 0
47 -56 0
-55 -56 0
54 51 57 0
-54 -57 0
-51 -57 0
15 58 59 0
-15 -59 0
-58 -59 0
-15 -58 60 0
15 -60 0
58 -60 0
59 60 61 0
-59 -61 0
-60 -61 0
-57 61 62 0
57 -62 0
-61 -62 0
57 -61 63 0
-57 -63 0
61 -63 0
62 63 64 0
-62 -64 0
-63 -64 0
-56 64 65 0
56 -65 0
-64 -65 0
65 -66 67 0
-65 -67 0
66 -67 0
-65 66 68 0
65 -68 0
-66 -68 0
67 68 69 0
-67 -69 0
-68 -69 0
15 -70 71 0
-15 -71 0
70 -71 0
-15 70 72 0
15 -72 0
-70 -72 0
71 72 73 0
-71 -73 0
-72 -73 0
63 60 74 0
-63 -74 0
-60 -74 0
73 74 75 0
-73 -75 0
-74 -75 0
-73 -74 76 0
73 -76 0
74 -76 0
75 76 77 0
-75 -77 0
-76 -77 0
69 -77 78 0
-69 -78 0
77 -78 0
-69 77 79 0
69 -79 0
-77 -79 0
78 79 80 0
-78 -80 0
-79 -80 0
-31 -32 81 0
31 -81 0
32 -81 0
81 33 82 0
-81 -82 0
-33 -82 0
-82 83 84 0
82 -84 0
-83 -84 0
82 -83 85 0
-82 -85 0
83 -85 0
84 85 86 0
-84 -86 0
-85 -86 0
-86 -87 88 0
86 -88 0
87 -88 0
31 3 89 0
-31 -89 0
-3 -89 0
-88 -89 90 0
88 -90 0
89 -90 0
90 85 91 0
-90 -91 0
-85 -91 0
34 -36 92 0
-34 -92 0
36 -92 0
92 37 93 0
-92 -93 0
-37 -93 0
93 94 95 0
-93 -95 0
-94 -95 0
-93 -94 96 0
93 -96 0
94 -96 0
95 96 97 0
-95 -97 0
-96 -97 0
91 -97 98 0
-91 -98 0
97 -98 0
98 96 99 0
-98 -99 0
-96 -99 0
-29 37 100 0
29 -100 0
-37 -100 0
100 38 101 0
-100 -101 0
-38 -101 0
101 102 103 0
-101 -103 0
-102 -103 0
-101 -102 104 0
101 -104 0
102 -104 0
103 104 105 0
-103 -105 0
-104 -105 0
99 -105 106 0
-99 -106 0
105 -106 0
106 104 107 0
-106 -107 0
-104 -107 0
38 -46 108 0
-38 -108 0
46 -108 0
108 47 109 0
-108 -109 0
-47 -109 0
109 110 111 0
-109 -111 0
-110 -111 0
-109 -110 112 0
109 -112 0
110 -112 0
111 112 113 0
-111 -113 0
-112 -113 0
107 -113 114 0
-107 -114 0
113 -114 0
114 112 115 0
-114 -115 0
-112 -115 0
47 -55 116 0
-47 -116 0
55 -116 0
116 56 117 0
-116 -117 0
-56 -117 0
117 118 119 0
-117 -119 0
-118 -119 0
-117 -118 120 0
117 -120 0
118 -120 0
119 120 121 0
-119 -121 0
-120 -121 0
115 -121 122 0
-115 -122 0
121 -122 0
122 120 123 0
-122 -123 0
-120 -123 0
56 -64 124 0
-56 -124 0
64 -124 0
124 65 125 0
-124 -125 0
-65 -125 0
125 126 127 0
-125 -127 0
-126 -127 0
-125 -126 128 0
125 -128 0
126 -128 0
127 128 129 0
-127 -129 0
-128 -129 0
123 -129 130 0
-123 -130 0
129 -130 0
130 128 131 0
-130 -131 0
-128 -131 0
-80 131 132 0
80 -132 0
-131 -132 0
80 -131 133 0
-80 -133 0
131 -133 0
132 133 134 0
-132 -134 0
-133 -134 0
-99 105 135 0
99 -135 0
-105 -135 0
135 106 136 0
-135 -136 0
-106 -136 0
-91 97 137 0
91 -137 0
-97 -137 0
137 98 138 0
-137 -138 0
-98 -138 0
136 138 139 0
-136 -139 0
-138 -139 0
86 87 140 0
-86 -140 0
-87 -140 0
-140 89 141 0
140 -141 0
-89 -141 0
141 90 142 0
-141 -142 0
-90 -142 0
-107 113 143 0
107 -143 0
-113 -143 0
143 114 144 0
-143 -144 0
-114 -144 0
142 144 145 0
-142 -145 0
-144 -145 0
-115 121 146 0
115 -146 0
-121 -146 0
146 122 147 0
-146 -147 0
-122 -147 0
-145 147 148 0
145 -148 0
-147 -148 0
-123 129 149 0
123 -149 0
-129 -149 0
149 130 150 0
-149 -150 0
-130 -150 0
-148 150 151 0
148 -151 0
-150 -151 0
-139 -151 152 0
139 -152 0
151 -152 0
-134 152 153 0
134 -153 0
-152 -153 0
153 0
